
  22   10
  10   10   10   10   10   10   10   10   10   10

   0   0   0   0   0   0   0   0   0   0   0   3 2 3 4 
   5   0   0  10   0   0   0   0   0   0   0   4 10 8 7 5 
  10   0   0   0   0   0   0   0  10   0   0   2 11 6 
   9   0  10   0   0   0   0   0   0   0   0   5 14 13 11 10 9 
   3   0   0   0   0   0   0   0   0  10   0   4 14 13 11 9 
  10   0   0   0   0   0  10   0   0   0   0   4 14 13 10 9 
   2   0   0  10   0   0   0   0   0   0   0   3 17 14 9 
   2   0   0   0  10   0   0   0   0   0   0   5 21 17 16 13 12 
   2   0   0   0   0  10   0   0   0   0   0   4 21 18 16 12 
   1  10   0   0   0   0   0   0   0   0   0   4 21 17 16 12 
   1   0   0   0  10   0   0   0   0   0   0   4 18 17 16 12 
   6   0   0   0   0   0   0   0  10   0   0   2 19 15 
   3   0   0   0   0   0  10   0   0   0   0   2 19 15 
   5   0   0   0   0   0   0  10   0   0   0   2 19 15 
  10   0   0   0   0   0   0   0   0  10   0   1 20 
   9   0  10   0   0   0   0   0   0   0   0   1 19 
   9   0   0   0  10   0   0   0   0   0   0   1 19 
   7   0   0   0   0   0   0  10   0   0   0   1 20 
   8   0   0   0  10   0   0   0   0   0   0   1 22
   8   0   0  10   0   0   0   0   0   0   0   1 22
   8  10   0   0   0   0   0   0   0   0   0   1 22
   0   0   0   0   0   0   0   0   0   0   0   0 
